Version identifier: 20.1.0.0 | 2020-11-10 | 9bedb6d68
CPXPARAM_Threads                                 1
CPXPARAM_TimeLimit                               7200
CPXPARAM_MIP_Tolerances_MIPGap                   0
Generic callback                                 0x60
1 of 1 MIP starts provided solutions.
MIP start 'm1' defined initial solution with objective 2873.0875.
Tried aggregator 1 time.
Reduced MIP has 1 rows, 501 columns, and 500 nonzeros.
Reduced MIP has 500 binaries, 0 generals, 0 SOSs, and 0 indicators.
Presolve time = 0.00 sec. (0.15 ticks)
Probing time = 0.00 sec. (0.05 ticks)
Tried aggregator 1 time.
Reduced MIP has 1 rows, 501 columns, and 500 nonzeros.
Reduced MIP has 500 binaries, 0 generals, 0 SOSs, and 0 indicators.
Presolve time = 0.00 sec. (0.15 ticks)
Probing time = 0.00 sec. (0.05 ticks)
MIP emphasis: balance optimality and feasibility.
MIP search method: dynamic search.
Parallel mode: none, using 1 thread.
Root relaxation solution time = 0.00 sec. (0.10 ticks)

        Nodes                                         Cuts/
   Node  Left     Objective  IInf  Best Integer    Best Bound    ItCnt     Gap

*     0+    0                         2873.0875     4368.0000            52.03%
      0     0     3508.5137     2     2873.0875     4368.0000        0   52.03%
      0     0     3299.1079     4     2873.0875 UserPurge2: 1        4   14.83%
      0     0     3234.5817     5     2873.0875 UserPurge2: 1        8   12.58%
      0     0     3151.3484     6     2873.0875 UserPurge2: 1       17    9.69%
      0     0     3123.4263     7     2873.0875 UserPurge2: 1       36    8.71%
      0     0     3113.7138     8     2873.0875 UserPurge2: 1       53    8.38%
      0     0     3102.5140     9     2873.0875 UserPurge2: 1       75    7.99%
      0     0     3086.9129    10     2873.0875 UserPurge2: 1       97    7.44%
      0     0     3071.9774     9     2873.0875 UserPurge2: 1      112    6.92%
      0     0     3068.1305     9     2873.0875 UserPurge2: 1      118    6.79%
      0     0     3064.5362    11     2873.0875 UserPurge2: 1      127    6.66%
      0     0     3053.7854     9     2873.0875 UserPurge2: 1      159    6.29%
      0     0     3046.4179     9     2873.0875 UserPurge2: 1      186    6.03%
      0     0     3032.7009     9     2873.0875 UserPurge2: 1      198    5.56%
      0     0     3026.7776    10     2873.0875 UserPurge2: 1      207    5.35%
      0     0     3017.8408     9     2873.0875 UserPurge2: 1      225    5.04%
      0     0     3006.9706     8     2873.0875 UserPurge2: 1      250    4.66%
      0     0     3002.6888    10     2873.0875 UserPurge1: 3      253    4.51%
      0     0     2992.1681     7     2873.0875 UserPurge2: 1      274    4.14%
      0     0     2988.1966     9     2873.0875 UserPurge2: 1      281    4.01%
      0     0     2987.2171    11     2873.0875 UserPurge2: 1      294    3.97%
      0     0     2986.0482    11     2873.0875 UserPurge2: 1      308    3.93%
      0     0     2980.8736    10     2873.0875 UserPurge2: 1      324    3.75%
      0     0     2978.1735     9     2873.0875 UserPurge2: 1      339    3.66%
      0     0     2975.0611     9     2873.0875 UserPurge2: 1      353    3.55%
      0     0     2973.6833     9     2873.0875 UserPurge2: 1      360    3.50%
      0     0     2972.0428     9     2873.0875 UserPurge2: 1      377    3.44%
      0     0     2971.5724    11     2873.0875 UserPurge2: 1      387    3.43%
      0     0     2969.1407    10     2873.0875 UserPurge2: 1      405    3.34%
*     0+    0                         2879.4123     2969.1407             3.12%
      0     0     2968.8460    11     2879.4123 UserPurge2: 1      410    3.11%
      0     0     2966.9472    11     2879.4123 UserPurge2: 1      428    3.04%
      0     0     2965.6754    12     2879.4123 UserPurge2: 1      440    3.00%
      0     0     2964.8969    12     2879.4123 UserPurge2: 1      451    2.97%
*     0+    0                         2889.4474     2964.8969             2.61%
      0     0     2964.3683    13     2889.4474 UserPurge2: 1      462    2.59%
      0     0     2963.6625    13     2889.4474 UserPurge2: 1      475    2.57%
      0     0     2962.1090    13     2889.4474 UserPurge2: 1      488    2.51%
      0     0     2960.5459    12     2889.4474 UserPurge2: 1      512    2.46%
      0     0     2958.8985    13     2889.4474 UserPurge2: 1      535    2.40%
      0     0     2958.1488    14     2889.4474 UserPurge2: 1      547    2.38%
      0     0     2957.4311    14     2889.4474 UserPurge2: 1      557    2.35%
      0     0     2956.3165    14     2889.4474 UserPurge2: 1      576    2.31%
      0     0     2953.0514    12     2889.4474 UserPurge2: 1      597    2.20%
      0     0     2951.3920    13     2889.4474 UserPurge2: 1      612    2.14%
      0     0     2950.1546    14     2889.4474 UserPurge2: 1      630    2.10%
      0     0     2949.6572    14     2889.4474 UserPurge2: 1      642    2.08%
      0     0     2948.1019    14     2889.4474 UserPurge2: 1      660    2.03%
*     0+    0                         2890.0636     2948.1019             2.01%
      0     0     2947.8891    14     2890.0636 UserPurge2: 1      674    2.00%
      0     0     2947.2889    14     2890.0636 UserPurge2: 1      688    1.98%
      0     0     2946.8346    14     2890.0636 UserPurge2: 1      698    1.96%
      0     0     2945.9952    14     2890.0636 UserPurge2: 1      713    1.94%
      0     0     2945.0586    14     2890.0636 UserPurge2: 1      736    1.90%
      0     0     2944.2765    12     2890.0636 UserPurge2: 1      752    1.88%
      0     0     2943.3150    13     2890.0636 UserPurge2: 1      769    1.84%
      0     0     2943.2651    14     2890.0636 UserPurge2: 1      776    1.84%
      0     0     2942.8101    14     2890.0636 UserPurge2: 1      791    1.83%
      0     0     2942.4434    15     2890.0636 UserPurge2: 1      805    1.81%
      0     0     2942.0310    14     2890.0636 UserPurge2: 1      823    1.80%
      0     0     2941.6162    15     2890.0636 UserPurge2: 1      834    1.78%
*     0+    0                         2894.6022     2941.6162             1.62%
      0     0     2941.2656    15     2894.6022 UserPurge2: 1      847    1.61%
      0     0     2940.7677    16     2894.6022 UserPurge2: 1      860    1.59%
      0     0     2940.5833    16     2894.6022 UserPurge2: 1      870    1.59%
      0     0     2940.4116    17     2894.6022 UserPurge2: 1      881    1.58%
      0     0     2939.8410    17     2894.6022 UserPurge2: 1      896    1.56%
      0     0     2939.6651    18     2894.6022 UserPurge2: 1      914    1.56%
      0     0     2939.3021    18     2894.6022 UserPurge2: 1      930    1.54%
      0     0     2938.8944    18     2894.6022 UserPurge2: 1      942    1.53%
      0     0     2938.6523    19     2894.6022 UserPurge2: 1      960    1.52%
      0     0     2937.8561    18     2894.6022 UserPurge2: 1      984    1.49%
      0     0     2936.4735    15     2894.6022 UserPurge2: 1     1018    1.45%
      0     0     2936.0184    15     2894.6022 UserPurge2: 1     1029    1.43%
      0     0     2935.7415    16     2894.6022 UserPurge2: 1     1044    1.42%
      0     0     2935.5601    17     2894.6022 UserPurge2: 1     1058    1.41%
      0     0     2935.1583    17     2894.6022 UserPurge2: 1     1073    1.40%
*     0+    0                         2894.9830     2935.1583             1.39%
      0     0     2934.5393    17     2894.9830 UserPurge2: 1     1088    1.37%
      0     0     2934.0973    17     2894.9830 UserPurge2: 1     1102    1.35%
      0     0     2933.9896    16     2894.9830 UserPurge2: 1     1113    1.35%
      0     0     2933.9415    17     2894.9830 UserPurge2: 1     1123    1.35%
      0     0     2933.7925    17     2894.9830 UserPurge2: 1     1136    1.34%
      0     0     2933.5717    17     2894.9830 UserPurge2: 1     1154    1.33%
      0     0     2933.3908    17     2894.9830 UserPurge2: 1     1164    1.33%
      0     0     2933.2493    18     2894.9830 UserPurge2: 1     1176    1.32%
      0     0     2933.0714    18     2894.9830 UserPurge2: 1     1187    1.32%
      0     0     2932.9380    18     2894.9830 UserPurge2: 1     1200    1.31%
*     0+    0                         2898.0956     2932.9380             1.20%
      0     0     2932.7952    19     2898.0956 UserPurge2: 1     1218    1.20%
*     0+    0                         2906.4416     2932.7952             0.91%
      0     0     2932.7001    20     2906.4416 UserPurge2: 1     1232    0.90%
      0     0     2932.4628    20     2906.4416 UserPurge2: 1     1255    0.90%
      0     0     2931.9926    19     2906.4416 UserPurge2: 1     1289    0.88%
      0     0     2931.8000    19     2906.4416 UserPurge2: 1     1298    0.87%
      0     0     2931.3323    17     2906.4416 UserPurge2: 1     1312    0.86%
      0     0     2931.2178    18     2906.4416 UserPurge2: 1     1322    0.85%
      0     0     2931.1033    19     2906.4416 UserPurge2: 1     1332    0.85%
      0     0     2930.9979    20     2906.4416 UserPurge2: 1     1345    0.84%
      0     0     2930.8636    21     2906.4416 UserPurge2: 1     1355    0.84%
      0     0     2930.7513    21     2906.4416 UserPurge2: 1     1363    0.84%
      0     0     2930.5897    22     2906.4416 UserPurge2: 1     1379    0.83%
      0     0     2930.4999    23     2906.4416 UserPurge2: 1     1390    0.83%
      0     0     2930.3025    23     2906.4416 UserPurge2: 1     1408    0.82%
      0     0     2929.9839    22     2906.4416 UserPurge2: 1     1422    0.81%
      0     0     2929.8705    23     2906.4416 UserPurge2: 1     1435    0.81%
      0     0     2929.4444    22     2906.4416 UserPurge2: 1     1474    0.79%
      0     0     2929.0710    21     2906.4416 UserPurge2: 1     1500    0.78%
      0     0     2928.7113    20     2906.4416 UserPurge2: 1     1513    0.77%
      0     0     2928.6196    19     2906.4416 UserPurge2: 1     1522    0.76%
      0     0     2928.5295    19     2906.4416 UserPurge2: 1     1533    0.76%
      0     0     2928.4257    20     2906.4416 UserPurge2: 1     1545    0.76%
      0     0     2928.3996    21     2906.4416 UserPurge2: 1     1552    0.76%
      0     0     2928.2850    22     2906.4416 UserPurge2: 1     1563    0.75%
      0     0     2928.1078    22     2906.4416 UserPurge2: 1     1585    0.75%
      0     0     2927.9867    22     2906.4416 UserPurge2: 1     1596    0.74%
      0     0     2927.8091    21     2906.4416 UserPurge2: 1     1610    0.74%
      0     0     2927.6191    20     2906.4416 UserPurge2: 1     1624    0.73%
      0     0     2927.5861    21     2906.4416 UserPurge2: 1     1631    0.73%
      0     0     2927.5065    22     2906.4416 UserPurge2: 1     1637    0.72%
      0     0     2927.3892    23     2906.4416 UserPurge2: 1     1652    0.72%
      0     0     2927.2903    24     2906.4416 UserPurge2: 1     1669    0.72%
      0     0     2927.2360    24     2906.4416 UserPurge2: 1     1680    0.72%
      0     0     2927.1155    24     2906.4416 UserPurge2: 1     1699    0.71%
      0     0     2926.9901    23     2906.4416 UserPurge2: 1     1715    0.71%
*     0+    0                         2909.4003     2926.9901             0.60%

Repeating presolve.
Tried aggregator 1 time.
MIP Presolve eliminated 0 rows and 141 columns.
Reduced MIP has 1 rows, 360 columns, and 359 nonzeros.
Reduced MIP has 359 binaries, 0 generals, 0 SOSs, and 0 indicators.
Presolve time = 0.00 sec. (0.14 ticks)
Probing time = 0.00 sec. (0.04 ticks)
Tried aggregator 1 time.
Reduced MIP has 1 rows, 360 columns, and 359 nonzeros.
Reduced MIP has 359 binaries, 0 generals, 0 SOSs, and 0 indicators.
Presolve time = 0.00 sec. (0.11 ticks)
Represolve time = 0.09 sec. (29.37 ticks)
Probing time = 0.00 sec. (0.04 ticks)
MIP emphasis: balance optimality and feasibility.
MIP search method: dynamic search.
Parallel mode: none, using 1 thread.
Root relaxation solution time = 0.00 sec. (4.13 ticks)

        Nodes                                         Cuts/
   Node  Left     Objective  IInf  Best Integer    Best Bound    ItCnt     Gap

*     0+    0                         2909.4003     2926.9901             0.60%
      0     0     2926.9901    23     2909.4003     2926.9901     1787    0.60%
      0     0     2926.8983    23     2909.4003 UserPurge2: 1     1805    0.60%
      0     0     2926.7863    24     2909.4003 UserPurge2: 1     1829    0.60%
      0     0     2926.6996    23     2909.4003 UserPurge2: 1     1845    0.59%
      0     0     2926.4431    23     2909.4003 UserPurge2: 1     1868    0.59%
      0     0     2926.2591    24     2909.4003 UserPurge2: 1     1885    0.58%
      0     0     2926.1415    23     2909.4003 UserPurge2: 1     1897    0.58%
      0     0     2926.1009    23     2909.4003 UserPurge2: 1     1907    0.57%
      0     0     2926.0672    24     2909.4003 UserPurge2: 1     1919    0.57%
      0     0     2925.9757    24     2909.4003 UserPurge2: 1     1943    0.57%
      0     0     2925.7514    25     2909.4003 UserPurge2: 1     1967    0.56%
      0     0     2925.5014    25     2909.4003 UserPurge2: 1     1983    0.55%
      0     0     2925.2985    24     2909.4003 UserPurge2: 1     1995    0.55%
      0     0     2925.0809    25     2909.4003 UserPurge2: 1     2013    0.54%
      0     0     2924.9290    25     2909.4003 UserPurge2: 1     2029    0.53%
      0     0     2924.8666    25     2909.4003 UserPurge2: 1     2038    0.53%
      0     0     2924.7584    25     2909.4003 UserPurge2: 1     2060    0.53%
      0     2     2924.7584    25     2909.4003     2924.7490     2060    0.53%
Elapsed time = 49.41 sec. (501.61 ticks, tree = 0.01 MB, solutions = 9)
      1     3     2916.1172    19     2909.4003     2924.7490    30428    0.53%
      2     4     2915.1377    19     2909.4003     2916.1171    36328    0.23%
      3     5     2913.6321    14     2909.4003     2916.1171    41954    0.23%
      4     6     2912.7309    21     2909.4003     2916.1171    49194    0.23%
      5     7     2912.8018     6     2909.4003     2916.1171    49665    0.23%
      7     9     2912.4919    12     2909.4003     2916.1171    49774    0.23%
      8    10     2912.0836     2     2909.4003     2916.1171    49824    0.23%
     11    10     2910.2852     2     2909.4003     2916.1171    49852    0.23%
*    12     9      integral     0     2910.0699     2916.1171    49861    0.21%
     12     9     2910.0699     0     2910.0699     2916.1171    49861    0.21%
     14     9     2916.0852    25     2910.0699     2916.0852    55338    0.21%
Elapsed time = 416.42 sec. (85422.26 ticks, tree = 0.37 MB, solutions = 10)
     15    10     2915.7971    22     2910.0699     2916.0852    63004    0.21%
     16    11     2914.5910     6     2910.0699     2916.0852    64474    0.21%
     17    12     2914.4011     8     2910.0699     2916.0852    67405    0.21%
     19    12     2914.3741    11     2910.0699     2916.0852    69163    0.21%
     21    12     2914.2994     4     2910.0699     2916.0852    69577    0.21%
     23    14     2912.1325     2     2910.0699     2916.0852    69729    0.21%
*    24     8      integral     0     2914.0270     2916.0852    69809    0.07%
     25     7     2914.9106     6     2914.0270     2915.7970    70789    0.06%
     26     8     2914.7298     6     2914.0270     2915.7970    70985    0.06%
     28    10     2914.6160     4     2914.0270     2915.7970    71073    0.06%
*    30     8      integral     0     2914.2964     2915.7970    71077    0.05%
Elapsed time = 635.46 sec. (149717.81 ticks, tree = 0.46 MB, solutions = 12)
     31     9     2915.4084    25     2914.2964     2915.4082    83685    0.04%
     32     8        cutoff           2914.2964     2915.4082    97588    0.04%
     34     8     2914.9126    17     2914.2964     2915.1374    99645    0.03%
     35     9     2914.3889    11     2914.2964     2915.1374   101218    0.03%
     38     6        cutoff           2914.2964     2914.9123   101483    0.02%
     39     7     2914.8867    16     2914.2964     2914.9051   102467    0.02%
     41     7     2914.3186    17     2914.2964     2914.9051   105845    0.02%

User cuts applied:  14740

Root node processing (before b&c):
  Real time             =   49.42 sec. (516.85 ticks)
Sequential b&c:
  Real time             =  946.17 sec. (299833.35 ticks)
                          ------------
Total (root+branch&cut) =  995.59 sec. (300350.21 ticks)
@Parameters: 
is_S_cut                                true
is_add_all_yinF                         true
is_start_value                          true
is_usercut                              true
is_visualization                        false
uc_only_rootnode                        false

data                                    Qi
fn                                      data/Qi/instance_800_500.csv
mode                                    NewSubmodular
solver                                  cplex

p                                       5
r                                       2

EPS                                     1.0e-06
EPS_vio                                 1.0e-04
beta                                    0.10
gap                                     0.00
nodelimit                               Inf
timelimit                               7200.00


@PrintInfos
ItCnt: 105925
Current gap: 0.00 %
Termination Status: OPTIMAL
Primal Status: FEASIBLE_POINT
Solve Time: 995.59 sec
Objective Value: 2914.296421
Number of Nodes:     49

CutInfo: [phase] num / time (sec) 
ZLP             [phase1]     0 / 0.00 [rLC]     0 / 0.00 [rUC]     0 / 0.00 [sLC]     0 / 0.00 [sUC]     0 / 0.00 
OldSubmodular   [phase1]     0 / 0.00 [rLC]     0 / 0.00 [rUC]     0 / 0.00 [sLC]     0 / 0.00 [sUC]     0 / 0.00 
NewSubmodular   [phase1]     0 / 0.00 [rLC]   227 / 30.34 [rUC]   714 / 16.41 [sLC]     1 / 6.04 [sUC] 15499 / 629.62 
PMP             [phase1]     0 / 0.00 [rLC]    18 / 25.77 [rUC]     0 / 0.00 [sLC]     4 / 5.98 [sUC]    58 / 95.94 
Separation Round: [phase1] 0  [rLC] 83  [rUC] 135  [sLC] 4  [sUC] 3049
Root Best Bound 2916.117097
Root Best Integer: 2909.400333
Best Bound: 2914.296421
Best Integer: 2914.296421

